p cnf 89 122
-1 30 49 50 -2 6 -3 82 -83 -85 -86 -87 -88 0 
-2 6 -4 45 81 82 -83 -85 -86 -87 -88 0 
-5 83 -82 -85 -86 -87 -88 0 
-6 2 -7 9 84 -82 -83 -85 -86 -87 -88 -18 0 
-8 22 39 65 73 -9 7 82 -83 -85 -86 -87 -88 0 
-10 21 -9 7 85 -82 -83 -86 -87 -88 0 
-11 82 -83 -85 -86 -87 -88 0 
-2 6 -12 -9 7 82 -83 -85 -86 -87 -88 0 
-13 41 77 -14 82 -83 -85 -86 -87 -88 0 
-15 33 -9 7 85 -82 -83 -86 -87 -88 0 
-1 30 49 50 -16 82 -83 -85 -86 -87 -88 0 
-17 31 36 52 -18 82 -83 -85 -86 -87 -88 0 
-19 -20 83 -82 -85 -86 -87 -88 0 
-8 22 39 65 73 82 -83 -85 -86 -87 -88 0 
-19 83 -82 -85 -86 -87 -88 0 
-17 31 36 52 82 -83 -85 -86 -87 -88 0 
-21 10 83 -82 -85 -86 -87 -88 0 
-22 8 39 65 73 -23 37 69 -24 28 54 55 56 57 58 61 62 63 79 80 85 -82 -83 -86 -87 -88 0 
-2 6 82 -83 -85 -86 -87 -88 0 
-13 41 77 82 -83 -85 -86 -87 -88 0 
-25 86 -82 -83 -85 -87 -88 0 
-18 -26 82 -83 -85 -86 -87 -88 0 
-9 7 -27 87 -82 -83 -85 -86 -88 0 
-28 24 54 55 56 57 58 61 62 63 79 80 -29 -10 21 82 -83 -85 -86 -87 -88 0 
-1 30 49 50 83 -82 -85 -86 -87 -88 0 
-30 1 49 50 86 -82 -83 -85 -87 -88 0 
-31 17 36 52 87 -82 -83 -85 -86 -88 0 
-32 68 82 -83 -85 -86 -87 -88 0 
-33 15 82 -83 -85 -86 -87 -88 0 
-33 15 -26 82 -83 -85 -86 -87 -88 0 
-34 -35 43 87 -82 -83 -85 -86 -88 0 
-33 15 83 -82 -85 -86 -87 -88 0 
-36 17 31 52 83 -82 -85 -86 -87 -88 0 
-32 68 83 -82 -85 -86 -87 -88 0 
-33 15 -37 23 69 -32 68 82 -83 -85 -86 -87 -88 0 
-34 -33 15 -37 23 69 -2 6 82 -83 -85 -86 -87 -88 0 
-38 82 -83 -85 -86 -87 -88 0 
-39 8 22 65 73 87 -82 -83 -85 -86 -88 0 
-33 15 88 -82 -83 -85 -86 -87 0 
-22 8 39 65 73 85 -82 -83 -86 -87 -88 0 
-22 8 39 65 73 -26 85 -82 -83 -86 -87 -88 0 
-1 30 49 50 -33 15 82 -83 -85 -86 -87 -88 0 
-2 6 -40 82 -83 -85 -86 -87 -88 0 
-29 82 -83 -85 -86 -87 -88 0 
-41 13 77 82 -83 -85 -86 -87 -88 0 
-42 67 82 -83 -85 -86 -87 -88 0 
-34 -33 15 -43 35 -32 68 82 -83 -85 -86 -87 -88 0 
-33 15 -43 35 -2 6 82 -83 -85 -86 -87 -88 0 
-39 8 22 65 73 -44 87 -82 -83 -85 -86 -88 0 
-22 8 39 65 73 -27 85 -82 -83 -86 -87 -88 0 
-26 85 -82 -83 -86 -87 -88 0 
-2 6 -45 4 81 82 -83 -85 -86 -87 -88 0 
-32 68 -46 76 82 -83 -85 -86 -87 -88 0 
-32 68 -16 82 -83 -85 -86 -87 -88 0 
-2 6 -45 4 81 82 -83 -85 -86 -87 -88 0 
-43 35 84 -82 -83 -85 -86 -87 -88 -18 0 
-33 15 -17 31 36 52 82 -83 -85 -86 -87 -88 0 
-47 82 -83 -85 -86 -87 -88 0 
-33 15 -38 82 -83 -85 -86 -87 -88 0 
-48 -49 1 30 50 82 -83 -85 -86 -87 -88 0 
-50 1 30 49 82 -83 -85 -86 -87 -88 0 
-13 41 77 -51 71 82 -83 -85 -86 -87 -88 0 
-52 17 31 36 -13 41 77 89 -82 -83 -85 -86 -87 -88 0 
-17 31 36 52 89 -82 -83 -85 -86 -87 -88 0 
-1 30 49 50 -28 24 54 55 56 57 58 61 62 63 79 80 82 -83 -85 -86 -87 -88 0 
-16 83 -82 -85 -86 -87 -88 0 
-53 59 60 78 84 -82 -83 -85 -86 -87 -88 -18 0 
-54 24 28 55 56 57 58 61 62 63 79 80 84 -82 -83 -85 -86 -87 -88 -18 0 
-55 24 28 54 56 57 58 61 62 63 79 80 84 -82 -83 -85 -86 -87 -88 -18 0 
-56 24 28 54 55 57 58 61 62 63 79 80 84 -82 -83 -85 -86 -87 -88 -18 0 
-57 24 28 54 55 56 58 61 62 63 79 80 84 -82 -83 -85 -86 -87 -88 -18 0 
-58 24 28 54 55 56 57 61 62 63 79 80 84 -82 -83 -85 -86 -87 -88 -18 0 
-59 53 60 78 84 -82 -83 -85 -86 -87 -88 -18 0 
-60 53 59 78 84 -82 -83 -85 -86 -87 -88 -18 0 
-61 24 28 54 55 56 57 58 62 63 79 80 84 -82 -83 -85 -86 -87 -88 -18 0 
-62 24 28 54 55 56 57 58 61 63 79 80 84 -82 -83 -85 -86 -87 -88 -18 0 
-63 24 28 54 55 56 57 58 61 62 79 80 84 -82 -83 -85 -86 -87 -88 -18 0 
-52 17 31 36 82 -83 -85 -86 -87 -88 0 
-33 15 89 -82 -83 -85 -86 -87 -88 0 
-33 15 -29 -64 89 -82 -83 -85 -86 -87 -88 0 
-2 6 87 -82 -83 -85 -86 -88 0 
-65 8 22 39 73 83 -82 -85 -86 -87 -88 0 
-66 82 -83 -85 -86 -87 -88 0 
-1 30 49 50 -26 82 -83 -85 -86 -87 -88 0 
-39 8 22 65 73 -32 68 -67 42 87 -82 -83 -85 -86 -88 0 
-1 30 49 50 -13 41 77 82 -83 -85 -86 -87 -88 0 
-34 -47 -2 6 82 -83 -85 -86 -87 -88 0 
-68 32 85 -82 -83 -86 -87 -88 0 
-43 35 -13 41 77 82 -83 -85 -86 -87 -88 0 
-69 23 37 85 -82 -83 -86 -87 -88 0 
-6 2 85 -82 -83 -86 -87 -88 0 
-70 86 -82 -83 -85 -87 -88 0 
-71 51 86 -82 -83 -85 -87 -88 0 
-71 51 -72 86 -82 -83 -85 -87 -88 0 
-73 8 22 39 65 86 -82 -83 -85 -87 -88 0 
-2 6 -12 -74 82 -83 -85 -86 -87 -88 0 
-13 41 77 -74 -27 82 -83 -85 -86 -87 -88 0 
-15 33 -74 85 -82 -83 -86 -87 -88 0 
-6 2 -74 84 -82 -83 -85 -86 -87 -88 -18 0 
-1 30 49 50 -74 82 -83 -85 -86 -87 -88 0 
-2 6 -4 45 81 82 -83 -85 -86 -87 -88 0 
-33 15 -17 31 36 52 -8 22 39 65 73 82 -83 -85 -86 -87 -88 0 
-30 1 49 50 -73 8 22 39 65 86 -82 -83 -85 -87 -88 0 
-75 -10 21 86 -82 -83 -85 -87 -88 0 
-2 6 -52 17 31 36 82 -83 -85 -86 -87 -88 0 
-75 -28 24 54 55 56 57 58 61 62 63 79 80 86 -82 -83 -85 -87 -88 0 
-2 6 -4 45 81 82 -83 -85 -86 -87 -88 0 
-76 46 83 -82 -85 -86 -87 -88 0 
-74 87 -82 -83 -85 -86 -88 0 
-8 22 39 65 73 -74 82 -83 -85 -86 -87 -88 0 
-10 21 -74 85 -82 -83 -86 -87 -88 0 
-11 82 -83 -85 -86 -87 -88 0 
-48 82 -83 -85 -86 -87 -88 0 
-77 13 41 85 -82 -83 -86 -87 -88 0 
-77 13 41 84 -82 -83 -85 -86 -87 -88 -18 0 
-78 53 59 60 84 -82 -83 -85 -86 -87 -88 -18 0 
-79 24 28 54 55 56 57 58 61 62 63 80 84 -82 -83 -85 -86 -87 -88 -18 0 
-80 24 28 54 55 56 57 58 61 62 63 79 84 -82 -83 -85 -86 -87 -88 -18 0 
-8 22 39 65 73 -27 82 -83 -85 -86 -87 -88 0 
-13 41 77 -40 82 -83 -85 -86 -87 -88 0 
-2 6 -81 4 45 82 -83 -85 -86 -87 -88 0 
-27 83 -82 -85 -86 -87 -88 0 
